(declare-fun temp682_1 () (_ BitVec 64))
(declare-fun var267855 () (_ BitVec 64))
(declare-fun k!0 () Bool)
(declare-fun ARGNAME_input_NAMEEND_DIM () (_ BitVec 64))
(declare-fun ARGNAME_target_NAMEEND_DIM () (_ BitVec 64))
(declare-fun temp682_2 () (_ BitVec 64))
(declare-fun ARGNAME_label_smoothing_NAMEEND () (_ BitVec 64))
(declare-fun var70865 () (_ BitVec 64))
(declare-fun temp682_3 () (_ BitVec 64))
(declare-fun temp682_4 () (_ BitVec 64))
(declare-fun var70867 () (_ BitVec 64))
(declare-fun temp682_5 () (_ BitVec 64))
(declare-fun temp682_6 () (_ BitVec 64))
(declare-fun var921507 () (_ BitVec 64))
(declare-fun var921510 () (_ BitVec 64))
(declare-fun var1117505 () (_ BitVec 64))
(declare-fun temp682_8 () (_ BitVec 64))
(declare-fun temp682_7 () (_ BitVec 64))
(declare-fun temp682_9 () (_ BitVec 64))
(declare-fun var917872 () (_ BitVec 64))
(declare-fun temp682_10 () (_ BitVec 64))
(declare-fun temp682_11 () (_ BitVec 64))
(declare-fun ARGNAME_weight_NAMEEND_DIMSIZE
             ()
             (Array (_ BitVec 64) (_ BitVec 64)))
(declare-fun temp682_12 () (_ BitVec 64))
(declare-fun temp682_13 () (_ BitVec 64))
(declare-fun temp682_14 () (_ BitVec 64))
(declare-fun temp682_15 () (_ BitVec 64))
(declare-fun temp682_16 () (_ BitVec 64))
(declare-fun temp682_17 () (_ BitVec 64))
(declare-fun temp682_18 () (_ BitVec 64))
(declare-fun temp682_19 () (_ BitVec 64))
(declare-fun temp682_20 () (_ BitVec 64))
(declare-fun temp682_21 () (_ BitVec 64))
(declare-fun temp682_22 () (_ BitVec 64))
(declare-fun temp682_23 () (_ BitVec 64))
(declare-fun temp682_24 () (_ BitVec 64))
(declare-fun temp682_25 () (_ BitVec 64))
(declare-fun temp682_26 () (_ BitVec 64))
(declare-fun temp682_27 () (_ BitVec 64))
(declare-fun temp682_28 () (_ BitVec 64))
(declare-fun ARGNAME_weight_NAMEEND_DIM () (_ BitVec 64))
(declare-fun temp682_29 () (_ BitVec 64))
(declare-fun temp682_30 () (_ BitVec 64))
(declare-fun var921553 () (_ BitVec 64))
(declare-fun var2690473 () (_ BitVec 64))
(declare-fun temp682_31 () (_ BitVec 64))
(declare-fun var3280385 () (_ BitVec 64))
(declare-fun temp682_33 () (_ BitVec 64))
(declare-fun temp682_32 () (_ BitVec 64))
(declare-fun temp682_34 () (_ BitVec 64))
(declare-fun var4330274 () (_ BitVec 64))
(declare-fun temp682_35 () (_ BitVec 64))
(declare-fun temp682_36 () (_ BitVec 64))
(declare-fun var4330275 () (_ BitVec 64))
(declare-fun var4330282 () (_ BitVec 64))
(declare-fun temp682_38 () (_ BitVec 64))
(declare-fun temp682_37 () (_ BitVec 64))
(declare-fun temp682_39 () (_ BitVec 64))
(declare-fun ARGNAME_reduction_NAMEEND () (_ BitVec 64))
(assert (= var267855
   (ite (= ARGNAME_input_NAMEEND_DIM ARGNAME_target_NAMEEND_DIM)
        #x0000000000000001
        #x0000000000000000)))
(assert (= temp682_1 #x0000000000000001))
(assert (= var267855 temp682_1))
(assert (= temp682_2 #x0000000000000000))
(assert (= var70865
   (ite (bvsgt ARGNAME_label_smoothing_NAMEEND temp682_2)
        #x0000000000000001
        #x0000000000000000)))
(assert (= temp682_3 #x0000000000000001))
(assert (= var70865 temp682_3))
(assert (= temp682_4 #x0000000000000001))
(assert (= var70867
   (ite (bvsgt ARGNAME_label_smoothing_NAMEEND temp682_4)
        #x0000000000000001
        #x0000000000000000)))
(assert (= temp682_5 #x0000000000000000))
(assert (= var70867 temp682_5))
(assert (= temp682_6 #x0000000000000001))
(assert (= var921507
   (ite (distinct ARGNAME_input_NAMEEND_DIM temp682_6)
        #x0000000000000001
        #x0000000000000000)))
(assert (= var921510 var921507))
(assert (= var1117505 var921510))
(assert (= temp682_8 #x0000000000000001))
(assert (= temp682_7 temp682_8))
(assert (= temp682_9 #x0000000000000000))
(assert (= var917872 temp682_9))
(assert (= temp682_10 #x0000000000000000))
(assert (= temp682_11 temp682_10))
(assert (= temp682_12 (select ARGNAME_weight_NAMEEND_DIMSIZE temp682_11)))
(assert (= temp682_13 #x0000000000000001))
(assert (= temp682_14 temp682_13))
(assert (= temp682_15 (select ARGNAME_weight_NAMEEND_DIMSIZE temp682_14)))
(assert (= temp682_16 #x0000000000000002))
(assert (= temp682_17 temp682_16))
(assert (= temp682_18 (select ARGNAME_weight_NAMEEND_DIMSIZE temp682_17)))
(assert (= temp682_19 #x0000000000000003))
(assert (= temp682_20 temp682_19))
(assert (= temp682_21 (select ARGNAME_weight_NAMEEND_DIMSIZE temp682_20)))
(assert (= temp682_22 #x0000000000000004))
(assert (= temp682_23 temp682_22))
(assert (= temp682_24 (select ARGNAME_weight_NAMEEND_DIMSIZE temp682_23)))
(assert (= temp682_25 #x0000000000000005))
(assert (= temp682_26 temp682_25))
(assert (= temp682_27 (select ARGNAME_weight_NAMEEND_DIMSIZE temp682_26)))
(assert (= temp682_28 #x0000000000000000))
(assert (= temp682_29
   (ite (bvslt var917872 temp682_28)
        (bvadd ARGNAME_weight_NAMEEND_DIM var917872)
        var917872)))
(assert (= temp682_30 (select ARGNAME_weight_NAMEEND_DIMSIZE temp682_29)))
(assert (= var921553 temp682_30))
(assert (bvslt (ite (bvslt var917872 temp682_28)
            (bvadd ARGNAME_weight_NAMEEND_DIM var917872)
            var917872)
       ARGNAME_weight_NAMEEND_DIM))
(assert (= var2690473 var921510))
(assert (= temp682_31 #x0000000000000000))
(assert (= var3280385 temp682_31))
(assert (= temp682_33 #x0000000000000001))
(assert (= temp682_32 temp682_33))
(assert (= temp682_34 #x0000000000000000))
(assert (= var4330274
   (ite (bvslt temp682_32 temp682_34) #x0000000000000001 #x0000000000000000)))
(assert (= temp682_35 #x0000000000000000))
(assert (= temp682_36 #xffffffffffffffff))
(assert (= var4330275 (ite (= var4330274 #x0000000000000001) temp682_35 temp682_36)))
(assert (= var4330282 var4330275))
(assert (= temp682_38 #x0000000000000005))
(assert (= temp682_37 temp682_38))
(assert (= temp682_39 #x0000000000000001))
(assert (or false (= ARGNAME_reduction_NAMEEND temp682_39)))
(model-add temp682_1 () (_ BitVec 64) #x0000000000000001)
(model-add var267855 () (_ BitVec 64) #x0000000000000001)
(model-del k!0)
(model-add ARGNAME_input_NAMEEND_DIM
           ()
           (_ BitVec 64)
           (ite k!0
                ARGNAME_target_NAMEEND_DIM
                (bvnot ARGNAME_target_NAMEEND_DIM)))




